25 50
1 2 3
1 6 1
2 3 5
2 7 5
3 4 4
3 8 3
4 5 5
4 9 3
5 10 3
6 7 2
6 11 1
7 8 2
7 12 3
8 9 1
8 13 5
9 10 2
9 14 4
10 15 4
11 12 5
11 16 3
12 13 3
12 17 3
13 14 3
13 18 4
14 15 1
14 19 1
15 20 4
16 17 2
16 21 4
17 18 1
17 22 4
18 19 5
18 23 2
19 20 3
19 24 2
20 25 5
21 22 3
22 23 3
23 24 1
24 25 5
1 21 2
2 22 1
3 23 5
4 24 1
5 25 4
1 5 3
6 10 5
11 15 1
16 20 2
21 25 1
